p cnf 198 308
1 5 37 0
9 -37 38 0
13 -38 39 0
17 21 -39 0
2 6 40 0
10 -40 41 0
14 -41 42 0
18 22 -42 0
3 7 43 0
11 -43 44 0
15 -44 45 0
19 23 -45 0
4 8 46 0
12 -46 47 0
16 -47 48 0
20 24 -48 0
-1 -5 50 0
-1 -5 -50 0
-1 -9 51 0
-1 -9 -51 0
-1 -13 52 0
-1 -13 -52 0
-1 -17 53 0
-1 -17 -53 0
-1 -21 54 0
-1 -21 -54 0
-5 -9 55 0
-5 -9 -55 0
-5 -13 56 0
-5 -13 -56 0
-5 -17 57 0
-5 -17 -57 0
-5 -21 58 0
-5 -21 -58 0
-9 -13 59 0
-9 -13 -59 0
-9 -17 60 0
-9 -17 -60 0
-9 -21 61 0
-9 -21 -61 0
-13 -17 62 0
-13 -17 -62 0
-13 -21 63 0
-13 -21 -63 0
-17 -21 64 0
-17 -21 -64 0
-2 -6 65 0
-2 -6 -65 0
-2 -10 66 0
-2 -10 -66 0
-2 -14 67 0
-2 -14 -67 0
-2 -18 68 0
-2 -18 -68 0
-2 -22 69 0
-2 -22 -69 0
-6 -10 70 0
-6 -10 -70 0
-6 -14 71 0
-6 -14 -71 0
-6 -18 72 0
-6 -18 -72 0
-6 -22 73 0
-6 -22 -73 0
-10 -14 74 0
-10 -14 -74 0
-10 -18 75 0
-10 -18 -75 0
-10 -22 76 0
-10 -22 -76 0
-14 -18 77 0
-14 -18 -77 0
-14 -22 78 0
-14 -22 -78 0
-18 -22 79 0
-18 -22 -79 0
-3 -7 80 0
-3 -7 -80 0
-3 -11 81 0
-3 -11 -81 0
-3 -15 82 0
-3 -15 -82 0
-3 -19 83 0
-3 -19 -83 0
-3 -23 84 0
-3 -23 -84 0
-7 -11 85 0
-7 -11 -85 0
-7 -15 86 0
-7 -15 -86 0
-7 -19 87 0
-7 -19 -87 0
-7 -23 88 0
-7 -23 -88 0
-11 -15 89 0
-11 -15 -89 0
-11 -19 90 0
-11 -19 -90 0
-11 -23 91 0
-11 -23 -91 0
-15 -19 92 0
-15 -19 -92 0
-15 -23 93 0
-15 -23 -93 0
-19 -23 94 0
-19 -23 -94 0
-4 -8 95 0
-4 -8 -95 0
-4 -12 96 0
-4 -12 -96 0
-4 -16 97 0
-4 -16 -97 0
-4 -20 98 0
-4 -20 -98 0
-4 -24 99 0
-4 -24 -99 0
-8 -12 100 0
-8 -12 -100 0
-8 -16 101 0
-8 -16 -101 0
-8 -20 102 0
-8 -20 -102 0
-8 -24 103 0
-8 -24 -103 0
-12 -16 104 0
-12 -16 -104 0
-12 -20 105 0
-12 -20 -105 0
-12 -24 106 0
-12 -24 -106 0
-16 -20 107 0
-16 -20 -107 0
-16 -24 108 0
-16 -24 -108 0
-20 -24 109 0
-20 -24 -109 0
-1 -2 110 0
-1 -2 -110 0
-1 -3 111 0
-1 -3 -111 0
-1 -4 112 0
-1 -4 -112 0
-2 -3 113 0
-2 -3 -113 0
-2 -4 114 0
-2 -4 -114 0
-3 -4 115 0
-3 -4 -115 0
-5 -6 116 0
-5 -6 -116 0
-5 -7 117 0
-5 -7 -117 0
-5 -8 118 0
-5 -8 -118 0
-6 -7 119 0
-6 -7 -119 0
-6 -8 120 0
-6 -8 -120 0
-7 -8 121 0
-7 -8 -121 0
-9 -10 122 0
-9 -10 -122 0
-9 -11 123 0
-9 -11 -123 0
-9 -12 124 0
-9 -12 -124 0
-10 -11 125 0
-10 -11 -125 0
-10 -12 126 0
-10 -12 -126 0
-11 -12 127 0
-11 -12 -127 0
-13 -14 128 0
-13 -14 -128 0
-13 -15 129 0
-13 -15 -129 0
-13 -16 130 0
-13 -16 -130 0
-14 -15 131 0
-14 -15 -131 0
-14 -16 132 0
-14 -16 -132 0
-15 -16 133 0
-15 -16 -133 0
-17 -18 134 0
-17 -18 -134 0
-17 -19 135 0
-17 -19 -135 0
-17 -20 136 0
-17 -20 -136 0
-18 -19 137 0
-18 -19 -137 0
-18 -20 138 0
-18 -20 -138 0
-19 -20 139 0
-19 -20 -139 0
-21 -22 140 0
-21 -22 -140 0
-21 -23 141 0
-21 -23 -141 0
-21 -24 142 0
-21 -24 -142 0
-22 -23 143 0
-22 -23 -143 0
-22 -24 144 0
-22 -24 -144 0
-23 -24 145 0
-23 -24 -145 0
25 28 145 0
31 34 -145 0
26 29 146 0
32 35 -146 0
27 30 147 0
33 36 -147 0
-25 -28 149 0
-25 -28 -149 0
-25 -31 150 0
-25 -31 -150 0
-25 -34 151 0
-25 -34 -151 0
-28 -31 152 0
-28 -31 -152 0
-28 -34 153 0
-28 -34 -153 0
-31 -34 154 0
-31 -34 -154 0
-26 -29 155 0
-26 -29 -155 0
-26 -32 156 0
-26 -32 -156 0
-26 -35 157 0
-26 -35 -157 0
-29 -32 158 0
-29 -32 -158 0
-29 -35 159 0
-29 -35 -159 0
-32 -35 160 0
-32 -35 -160 0
-27 -30 161 0
-27 -30 -161 0
-27 -33 162 0
-27 -33 -162 0
-27 -36 163 0
-27 -36 -163 0
-30 -33 164 0
-30 -33 -164 0
-30 -36 165 0
-30 -36 -165 0
-33 -36 166 0
-33 -36 -166 0
-25 -26 167 0
-25 -26 -167 0
-25 -27 168 0
-25 -27 -168 0
-26 -27 169 0
-26 -27 -169 0
-28 -29 170 0
-28 -29 -170 0
-28 -30 171 0
-28 -30 -171 0
-29 -30 172 0
-29 -30 -172 0
-31 -32 173 0
-31 -32 -173 0
-31 -33 174 0
-31 -33 -174 0
-32 -33 175 0
-32 -33 -175 0
-34 -35 176 0
-34 -35 -176 0
-34 -36 177 0
-34 -36 -177 0
-35 -36 178 0
-35 -36 -178 0
28 29 178 0
30 -17 -178 0
28 29 179 0
30 -18 -179 0
28 29 180 0
30 -19 -180 0
28 29 181 0
30 -20 -181 0
17 18 182 0
19 -182 183 0
20 -28 -183 0
17 18 184 0
19 -184 185 0
20 -29 -185 0
17 18 186 0
19 -186 187 0
20 -30 -187 0
25 26 188 0
27 -13 -188 0
25 26 189 0
27 -14 -189 0
25 26 190 0
27 -15 -190 0
25 26 191 0
27 -16 -191 0
13 14 192 0
15 -192 193 0
16 -25 -193 0
13 14 194 0
15 -194 195 0
16 -26 -195 0
13 14 196 0
15 -196 197 0
16 -27 -197 0
